(set-logic HORN)
(declare-fun state (Int (Array Int Int) (Array Int Int) (Array Int Int) (Array Int Int) Int Int (Array Int Int) (Array Int Int) Int Int Int Int Int Int Int Int Int Int Int Int Int Int Int Int Int Int Int Int Int Int Int Int Int Int Int Int Bool Bool Bool Bool Bool (Array Int Int) Int) Bool)
(assert (forall ((|hhv_ULTIMATE.start_ULTIMATE.startFINAL_0_Int| Int) (|hhv_ULTIMATE.start_ULTIMATE.startFINAL_1_Array_Int_Int| (Array Int Int)) (|hhv_ULTIMATE.start_ULTIMATE.startFINAL_2_Array_Int_Int| (Array Int Int)) (|hhv_ULTIMATE.start_ULTIMATE.startFINAL_3_Array_Int_Array_Int_Int| (Array Int Int)) (|hhv_ULTIMATE.start_ULTIMATE.startFINAL_4_Array_Int_Array_Int_Int| (Array Int Int)) (|hhv_ULTIMATE.start_ULTIMATE.startFINAL_5_Int| Int) (|hhv_ULTIMATE.start_ULTIMATE.startFINAL_6_Int| Int) (|hhv_ULTIMATE.start_ULTIMATE.startFINAL_7_Array_Int_Int| (Array Int Int)) (|hhv_ULTIMATE.start_ULTIMATE.startFINAL_8_Array_Int_Int| (Array Int Int)) (|hhv_ULTIMATE.start_ULTIMATE.startFINAL_9_Int| Int) (|hhv_ULTIMATE.start_ULTIMATE.startFINAL_10_Int| Int) (|hhv_ULTIMATE.start_ULTIMATE.startFINAL_11_Int| Int) (|hhv_ULTIMATE.start_ULTIMATE.startFINAL_12_Int| Int) (|hhv_ULTIMATE.start_ULTIMATE.startFINAL_13_Int| Int) (|hhv_ULTIMATE.start_ULTIMATE.startFINAL_14_Int| Int) (|hhv_ULTIMATE.start_ULTIMATE.startFINAL_15_Int| Int) (|hhv_ULTIMATE.start_ULTIMATE.startFINAL_16_Int| Int) (|hhv_ULTIMATE.start_ULTIMATE.startFINAL_17_Int| Int) (|hhv_ULTIMATE.start_ULTIMATE.startFINAL_18_Int| Int) (|hhv_ULTIMATE.start_ULTIMATE.startFINAL_19_Int| Int) (|hhv_ULTIMATE.start_ULTIMATE.startFINAL_20_Int| Int) (|hhv_ULTIMATE.start_ULTIMATE.startFINAL_21_Int| Int) (|hhv_ULTIMATE.start_ULTIMATE.startFINAL_22_Int| Int) (|hhv_ULTIMATE.start_ULTIMATE.startFINAL_23_Int| Int) (|hhv_ULTIMATE.start_ULTIMATE.startFINAL_24_Int| Int) (|hhv_ULTIMATE.start_ULTIMATE.startFINAL_25_Int| Int) (|hhv_ULTIMATE.start_ULTIMATE.startFINAL_26_Int| Int) (|hbv_ULTIMATE.start_L38_27_Int| Int) (|hhv_ULTIMATE.start_ULTIMATE.startFINAL_28_Int| Int) (|hhv_ULTIMATE.start_ULTIMATE.startFINAL_29_Int| Int) (|hhv_ULTIMATE.start_ULTIMATE.startFINAL_30_Int| Int) (|hhv_ULTIMATE.start_ULTIMATE.startFINAL_31_Int| Int) (|hhv_ULTIMATE.start_ULTIMATE.startFINAL_32_Int| Int) (|hhv_ULTIMATE.start_ULTIMATE.startFINAL_33_Int| Int) (|hhv_ULTIMATE.start_ULTIMATE.startFINAL_34_Int| Int) (|hhv_ULTIMATE.start_ULTIMATE.startFINAL_35_Int| Int) (|hhv_ULTIMATE.start_ULTIMATE.startFINAL_36_Int| Int) (|hhv_ULTIMATE.start_ULTIMATE.startFINAL_37_Bool| Bool) (|.loc.5| Bool) (|.loc.6| Bool) (|.loc.7| Bool) (|.loc.8| Bool) (|hbv_ULTIMATE.start_L-1_1_Array_Int_Int| (Array Int Int)) (|hbv_ULTIMATE.start_L30_33_Int| Int) (|.x.602| Int) (|.x.600| (Array Int Int)) (|.x.598| Int) (|.x.596| (Array Int Int)) (|.x.592| Int) (|.x.594| (Array Int Int)) (|.x.619| Int) (|.x.605| Int) (|.x.610| Int) (|.x.612| Int) (|.x.613| Int) (|.x.617| Int) (|.x.620| Int) (|.x.624| Int) (|.x.625| Int) (|.x.628| Int) (|.x.629| Bool) (|.x.614| Int) (|.x.593| (Array Int Int)) (|.x.616| Int) (|.x.622| Int) (|.loc.12| Bool) (|.loc.9| Bool) (|.loc.10| Bool) (|.loc.11| Bool) (|.x.618| Int) (|.x.603| Int) (|.x.626| Int) (|.x.623| Int) (|.x.606| Int) (|.x.595| (Array Int Int)) (|.x.608| Int) (|.x.609| Int) (|.x.615| Int) (|.x.627| Int) (|.x.621| Int) (|.x.611| Int) (|.x.604| Int) (|.x.607| Int) (|.x.601| Int) (|.x.597| Int) (|.x.599| (Array Int Int)) (|.xtv.1| (Array Int Int)) (|.xtv.2| Int)) (=> (and (and (and (and (not .loc.5) (not .loc.6)) (not .loc.7)) (not .loc.8)) (and (and (and (and (and (not hhv_ULTIMATE.start_ULTIMATE.startFINAL_37_Bool) (= hhv_ULTIMATE.start_ULTIMATE.startFINAL_1_Array_Int_Int hhv_ULTIMATE.start_ULTIMATE.startFINAL_2_Array_Int_Int)) (= hhv_ULTIMATE.start_ULTIMATE.startFINAL_7_Array_Int_Int hhv_ULTIMATE.start_ULTIMATE.startFINAL_8_Array_Int_Int)) (= hhv_ULTIMATE.start_ULTIMATE.startFINAL_5_Int hhv_ULTIMATE.start_ULTIMATE.startFINAL_6_Int)) (= hhv_ULTIMATE.start_ULTIMATE.startFINAL_3_Array_Int_Array_Int_Int hhv_ULTIMATE.start_ULTIMATE.startFINAL_4_Array_Int_Array_Int_Int)) (= hhv_ULTIMATE.start_ULTIMATE.startFINAL_9_Int hhv_ULTIMATE.start_ULTIMATE.startFINAL_10_Int))) (state |hhv_ULTIMATE.start_ULTIMATE.startFINAL_0_Int| |hhv_ULTIMATE.start_ULTIMATE.startFINAL_1_Array_Int_Int| |hhv_ULTIMATE.start_ULTIMATE.startFINAL_2_Array_Int_Int| |hhv_ULTIMATE.start_ULTIMATE.startFINAL_3_Array_Int_Array_Int_Int| |hhv_ULTIMATE.start_ULTIMATE.startFINAL_4_Array_Int_Array_Int_Int| |hhv_ULTIMATE.start_ULTIMATE.startFINAL_5_Int| |hhv_ULTIMATE.start_ULTIMATE.startFINAL_6_Int| |hhv_ULTIMATE.start_ULTIMATE.startFINAL_7_Array_Int_Int| |hhv_ULTIMATE.start_ULTIMATE.startFINAL_8_Array_Int_Int| |hhv_ULTIMATE.start_ULTIMATE.startFINAL_9_Int| |hhv_ULTIMATE.start_ULTIMATE.startFINAL_10_Int| |hhv_ULTIMATE.start_ULTIMATE.startFINAL_11_Int| |hhv_ULTIMATE.start_ULTIMATE.startFINAL_12_Int| |hhv_ULTIMATE.start_ULTIMATE.startFINAL_13_Int| |hhv_ULTIMATE.start_ULTIMATE.startFINAL_14_Int| |hhv_ULTIMATE.start_ULTIMATE.startFINAL_15_Int| |hhv_ULTIMATE.start_ULTIMATE.startFINAL_16_Int| |hhv_ULTIMATE.start_ULTIMATE.startFINAL_17_Int| |hhv_ULTIMATE.start_ULTIMATE.startFINAL_18_Int| |hhv_ULTIMATE.start_ULTIMATE.startFINAL_19_Int| |hhv_ULTIMATE.start_ULTIMATE.startFINAL_20_Int| |hhv_ULTIMATE.start_ULTIMATE.startFINAL_21_Int| |hhv_ULTIMATE.start_ULTIMATE.startFINAL_22_Int| |hhv_ULTIMATE.start_ULTIMATE.startFINAL_23_Int| |hhv_ULTIMATE.start_ULTIMATE.startFINAL_24_Int| |hhv_ULTIMATE.start_ULTIMATE.startFINAL_25_Int| |hhv_ULTIMATE.start_ULTIMATE.startFINAL_26_Int| |hbv_ULTIMATE.start_L38_27_Int| |hhv_ULTIMATE.start_ULTIMATE.startFINAL_28_Int| |hhv_ULTIMATE.start_ULTIMATE.startFINAL_29_Int| |hhv_ULTIMATE.start_ULTIMATE.startFINAL_30_Int| |hhv_ULTIMATE.start_ULTIMATE.startFINAL_31_Int| |hhv_ULTIMATE.start_ULTIMATE.startFINAL_32_Int| |hhv_ULTIMATE.start_ULTIMATE.startFINAL_33_Int| |hhv_ULTIMATE.start_ULTIMATE.startFINAL_34_Int| |hhv_ULTIMATE.start_ULTIMATE.startFINAL_35_Int| |hhv_ULTIMATE.start_ULTIMATE.startFINAL_36_Int| |hhv_ULTIMATE.start_ULTIMATE.startFINAL_37_Bool| |.loc.5| |.loc.6| |.loc.7| |.loc.8| |hbv_ULTIMATE.start_L-1_1_Array_Int_Int| |hbv_ULTIMATE.start_L30_33_Int|))))
(assert (forall ((|hhv_ULTIMATE.start_ULTIMATE.startFINAL_0_Int| Int) (|hhv_ULTIMATE.start_ULTIMATE.startFINAL_1_Array_Int_Int| (Array Int Int)) (|hhv_ULTIMATE.start_ULTIMATE.startFINAL_2_Array_Int_Int| (Array Int Int)) (|hhv_ULTIMATE.start_ULTIMATE.startFINAL_3_Array_Int_Array_Int_Int| (Array Int Int)) (|hhv_ULTIMATE.start_ULTIMATE.startFINAL_4_Array_Int_Array_Int_Int| (Array Int Int)) (|hhv_ULTIMATE.start_ULTIMATE.startFINAL_5_Int| Int) (|hhv_ULTIMATE.start_ULTIMATE.startFINAL_6_Int| Int) (|hhv_ULTIMATE.start_ULTIMATE.startFINAL_7_Array_Int_Int| (Array Int Int)) (|hhv_ULTIMATE.start_ULTIMATE.startFINAL_8_Array_Int_Int| (Array Int Int)) (|hhv_ULTIMATE.start_ULTIMATE.startFINAL_9_Int| Int) (|hhv_ULTIMATE.start_ULTIMATE.startFINAL_10_Int| Int) (|hhv_ULTIMATE.start_ULTIMATE.startFINAL_11_Int| Int) (|hhv_ULTIMATE.start_ULTIMATE.startFINAL_12_Int| Int) (|hhv_ULTIMATE.start_ULTIMATE.startFINAL_13_Int| Int) (|hhv_ULTIMATE.start_ULTIMATE.startFINAL_14_Int| Int) (|hhv_ULTIMATE.start_ULTIMATE.startFINAL_15_Int| Int) (|hhv_ULTIMATE.start_ULTIMATE.startFINAL_16_Int| Int) (|hhv_ULTIMATE.start_ULTIMATE.startFINAL_17_Int| Int) (|hhv_ULTIMATE.start_ULTIMATE.startFINAL_18_Int| Int) (|hhv_ULTIMATE.start_ULTIMATE.startFINAL_19_Int| Int) (|hhv_ULTIMATE.start_ULTIMATE.startFINAL_20_Int| Int) (|hhv_ULTIMATE.start_ULTIMATE.startFINAL_21_Int| Int) (|hhv_ULTIMATE.start_ULTIMATE.startFINAL_22_Int| Int) (|hhv_ULTIMATE.start_ULTIMATE.startFINAL_23_Int| Int) (|hhv_ULTIMATE.start_ULTIMATE.startFINAL_24_Int| Int) (|hhv_ULTIMATE.start_ULTIMATE.startFINAL_25_Int| Int) (|hhv_ULTIMATE.start_ULTIMATE.startFINAL_26_Int| Int) (|hbv_ULTIMATE.start_L38_27_Int| Int) (|hhv_ULTIMATE.start_ULTIMATE.startFINAL_28_Int| Int) (|hhv_ULTIMATE.start_ULTIMATE.startFINAL_29_Int| Int) (|hhv_ULTIMATE.start_ULTIMATE.startFINAL_30_Int| Int) (|hhv_ULTIMATE.start_ULTIMATE.startFINAL_31_Int| Int) (|hhv_ULTIMATE.start_ULTIMATE.startFINAL_32_Int| Int) (|hhv_ULTIMATE.start_ULTIMATE.startFINAL_33_Int| Int) (|hhv_ULTIMATE.start_ULTIMATE.startFINAL_34_Int| Int) (|hhv_ULTIMATE.start_ULTIMATE.startFINAL_35_Int| Int) (|hhv_ULTIMATE.start_ULTIMATE.startFINAL_36_Int| Int) (|hhv_ULTIMATE.start_ULTIMATE.startFINAL_37_Bool| Bool) (|.loc.5| Bool) (|.loc.6| Bool) (|.loc.7| Bool) (|.loc.8| Bool) (|hbv_ULTIMATE.start_L-1_1_Array_Int_Int| (Array Int Int)) (|hbv_ULTIMATE.start_L30_33_Int| Int) (|.x.602| Int) (|.x.600| (Array Int Int)) (|.x.598| Int) (|.x.596| (Array Int Int)) (|.x.592| Int) (|.x.594| (Array Int Int)) (|.x.619| Int) (|.x.605| Int) (|.x.610| Int) (|.x.612| Int) (|.x.613| Int) (|.x.617| Int) (|.x.620| Int) (|.x.624| Int) (|.x.625| Int) (|.x.628| Int) (|.x.629| Bool) (|.x.614| Int) (|.x.593| (Array Int Int)) (|.x.616| Int) (|.x.622| Int) (|.loc.12| Bool) (|.loc.9| Bool) (|.loc.10| Bool) (|.loc.11| Bool) (|.x.618| Int) (|.x.603| Int) (|.x.626| Int) (|.x.623| Int) (|.x.606| Int) (|.x.595| (Array Int Int)) (|.x.608| Int) (|.x.609| Int) (|.x.615| Int) (|.x.627| Int) (|.x.621| Int) (|.x.611| Int) (|.x.604| Int) (|.x.607| Int) (|.x.601| Int) (|.x.597| Int) (|.x.599| (Array Int Int)) (|.xtv.1| (Array Int Int)) (|.xtv.2| Int)) (=> (and (state |hhv_ULTIMATE.start_ULTIMATE.startFINAL_0_Int| |hhv_ULTIMATE.start_ULTIMATE.startFINAL_1_Array_Int_Int| |hhv_ULTIMATE.start_ULTIMATE.startFINAL_2_Array_Int_Int| |hhv_ULTIMATE.start_ULTIMATE.startFINAL_3_Array_Int_Array_Int_Int| |hhv_ULTIMATE.start_ULTIMATE.startFINAL_4_Array_Int_Array_Int_Int| |hhv_ULTIMATE.start_ULTIMATE.startFINAL_5_Int| |hhv_ULTIMATE.start_ULTIMATE.startFINAL_6_Int| |hhv_ULTIMATE.start_ULTIMATE.startFINAL_7_Array_Int_Int| |hhv_ULTIMATE.start_ULTIMATE.startFINAL_8_Array_Int_Int| |hhv_ULTIMATE.start_ULTIMATE.startFINAL_9_Int| |hhv_ULTIMATE.start_ULTIMATE.startFINAL_10_Int| |hhv_ULTIMATE.start_ULTIMATE.startFINAL_11_Int| |hhv_ULTIMATE.start_ULTIMATE.startFINAL_12_Int| |hhv_ULTIMATE.start_ULTIMATE.startFINAL_13_Int| |hhv_ULTIMATE.start_ULTIMATE.startFINAL_14_Int| |hhv_ULTIMATE.start_ULTIMATE.startFINAL_15_Int| |hhv_ULTIMATE.start_ULTIMATE.startFINAL_16_Int| |hhv_ULTIMATE.start_ULTIMATE.startFINAL_17_Int| |hhv_ULTIMATE.start_ULTIMATE.startFINAL_18_Int| |hhv_ULTIMATE.start_ULTIMATE.startFINAL_19_Int| |hhv_ULTIMATE.start_ULTIMATE.startFINAL_20_Int| |hhv_ULTIMATE.start_ULTIMATE.startFINAL_21_Int| |hhv_ULTIMATE.start_ULTIMATE.startFINAL_22_Int| |hhv_ULTIMATE.start_ULTIMATE.startFINAL_23_Int| |hhv_ULTIMATE.start_ULTIMATE.startFINAL_24_Int| |hhv_ULTIMATE.start_ULTIMATE.startFINAL_25_Int| |hhv_ULTIMATE.start_ULTIMATE.startFINAL_26_Int| |hbv_ULTIMATE.start_L38_27_Int| |hhv_ULTIMATE.start_ULTIMATE.startFINAL_28_Int| |hhv_ULTIMATE.start_ULTIMATE.startFINAL_29_Int| |hhv_ULTIMATE.start_ULTIMATE.startFINAL_30_Int| |hhv_ULTIMATE.start_ULTIMATE.startFINAL_31_Int| |hhv_ULTIMATE.start_ULTIMATE.startFINAL_32_Int| |hhv_ULTIMATE.start_ULTIMATE.startFINAL_33_Int| |hhv_ULTIMATE.start_ULTIMATE.startFINAL_34_Int| |hhv_ULTIMATE.start_ULTIMATE.startFINAL_35_Int| |hhv_ULTIMATE.start_ULTIMATE.startFINAL_36_Int| |hhv_ULTIMATE.start_ULTIMATE.startFINAL_37_Bool| |.loc.5| |.loc.6| |.loc.7| |.loc.8| |hbv_ULTIMATE.start_L-1_1_Array_Int_Int| |hbv_ULTIMATE.start_L30_33_Int|) (let ((.def_54 (not .loc.5))) (let ((.def_55 (not .loc.6))) (let ((.def_57 (not .loc.7))) (let ((.def_95 (= hhv_ULTIMATE.start_ULTIMATE.startFINAL_13_Int .x.605))) (let ((.def_98 (= hhv_ULTIMATE.start_ULTIMATE.startFINAL_18_Int .x.610))) (let ((.def_101 (= hhv_ULTIMATE.start_ULTIMATE.startFINAL_20_Int .x.612))) (let ((.def_104 (= hhv_ULTIMATE.start_ULTIMATE.startFINAL_21_Int .x.613))) (let ((.def_107 (= hhv_ULTIMATE.start_ULTIMATE.startFINAL_25_Int .x.617))) (let ((.def_110 (= hhv_ULTIMATE.start_ULTIMATE.startFINAL_28_Int .x.620))) (let ((.def_113 (= hhv_ULTIMATE.start_ULTIMATE.startFINAL_32_Int .x.624))) (let ((.def_116 (= hhv_ULTIMATE.start_ULTIMATE.startFINAL_33_Int .x.625))) (let ((.def_119 (= hhv_ULTIMATE.start_ULTIMATE.startFINAL_36_Int .x.628))) (let ((.def_122 (= hhv_ULTIMATE.start_ULTIMATE.startFINAL_37_Bool .x.629))) (let ((.def_132 (and (and (<= (- 2147483648) hbv_ULTIMATE.start_L30_33_Int) (<= hbv_ULTIMATE.start_L30_33_Int 2147483647)) (= hbv_ULTIMATE.start_L30_33_Int .x.617)))) (let ((.def_135 (= hbv_ULTIMATE.start_L30_33_Int 0))) (let ((.def_140 (= hbv_ULTIMATE.start_L38_27_Int .x.619))) (let ((.def_163 (or hhv_ULTIMATE.start_ULTIMATE.startFINAL_37_Bool (and (= .x.620 .x.624) (and (= hhv_ULTIMATE.start_ULTIMATE.startFINAL_22_Int .x.628) (and (= .x.610 .x.612) (and (= .x.613 .x.628) (and (= .x.617 (ite (= .x.624 (select (select hhv_ULTIMATE.start_ULTIMATE.startFINAL_3_Array_Int_Array_Int_Int .x.613) (+ .x.610 (* 8 .x.624)))) 1 0)) (and (= hhv_ULTIMATE.start_ULTIMATE.startFINAL_26_Int .x.620) (= hhv_ULTIMATE.start_ULTIMATE.startFINAL_24_Int .x.612)))))))))) (let ((.def_167 (= hhv_ULTIMATE.start_ULTIMATE.startFINAL_22_Int .x.614))) (let ((.def_169 (= hhv_ULTIMATE.start_ULTIMATE.startFINAL_1_Array_Int_Int .x.593))) (let ((.def_172 (= hhv_ULTIMATE.start_ULTIMATE.startFINAL_24_Int .x.616))) (let ((.def_175 (= hhv_ULTIMATE.start_ULTIMATE.startFINAL_30_Int .x.622))) (let ((.def_176 (and (and (and .def_167 .def_169) .def_172) .def_175))) (let ((.def_180 (not .loc.9))) (let ((.def_183 (not .loc.10))) (let ((.def_186 (not .loc.11))) (let ((.def_196 (not .loc.12))) (let ((.def_239 (= hhv_ULTIMATE.start_ULTIMATE.startFINAL_26_Int .x.618))) (let ((.def_241 (= hhv_ULTIMATE.start_ULTIMATE.startFINAL_11_Int .x.603))) (let ((.def_246 (<= hhv_ULTIMATE.start_ULTIMATE.startFINAL_11_Int 2147483647))) (let ((.def_248 (<= (- 2147483648) hhv_ULTIMATE.start_ULTIMATE.startFINAL_11_Int))) (let ((.def_257 (and .def_95 .def_169))) (let ((.def_282 (= hhv_ULTIMATE.start_ULTIMATE.startFINAL_34_Int .x.626))) (let ((.def_284 (<= hhv_ULTIMATE.start_ULTIMATE.startFINAL_34_Int hhv_ULTIMATE.start_ULTIMATE.startFINAL_26_Int))) (let ((.def_293 (and .def_107 (and .def_172 (and .def_167 (and .def_104 (and .def_101 (and .def_98 (and .def_95 (and .def_169 .def_241)))))))))) (let ((.def_296 (and .def_175 (and .def_110 (and .def_239 .def_293))))) (let ((.def_300 (and .def_122 (and .def_119 (and .def_116 (and .def_113 .def_296)))))) (let ((.def_322 (and .def_175 (and .def_110 (and .def_239 (and .def_107 (and .def_172 (and .def_167 (and .def_104 (and .def_101 (and .def_98 (and .def_95 (and .def_241 (and hhv_ULTIMATE.start_ULTIMATE.startFINAL_37_Bool .def_169)))))))))))))) (let ((.def_352 (= hhv_ULTIMATE.start_ULTIMATE.startFINAL_31_Int .x.623))) (let ((.def_393 (<= 20 hhv_ULTIMATE.start_ULTIMATE.startFINAL_23_Int))) (let ((.def_401 (and .loc.5 (and .def_122 (and .def_119 (and .def_282 (and .def_116 (and .def_113 (and .def_296 .def_352))))))))) (let ((.def_412 (= hhv_ULTIMATE.start_ULTIMATE.startFINAL_14_Int .x.606))) (let ((.def_414 (= hhv_ULTIMATE.start_ULTIMATE.startFINAL_3_Array_Int_Array_Int_Int .x.595))) (let ((.def_417 (= hhv_ULTIMATE.start_ULTIMATE.startFINAL_16_Int .x.608))) (let ((.def_420 (= hhv_ULTIMATE.start_ULTIMATE.startFINAL_17_Int .x.609))) (let ((.def_423 (= hhv_ULTIMATE.start_ULTIMATE.startFINAL_23_Int .x.615))) (and (and (not .loc.8) (and (= hhv_ULTIMATE.start_ULTIMATE.startFINAL_10_Int .x.602) (and (= hhv_ULTIMATE.start_ULTIMATE.startFINAL_8_Array_Int_Int .x.600) (and (= hhv_ULTIMATE.start_ULTIMATE.startFINAL_6_Int .x.598) (and (= hhv_ULTIMATE.start_ULTIMATE.startFINAL_4_Array_Int_Array_Int_Int .x.596) (and (= hhv_ULTIMATE.start_ULTIMATE.startFINAL_0_Int .x.592) (= hhv_ULTIMATE.start_ULTIMATE.startFINAL_2_Array_Int_Int .x.594))))))) (or (and (or (and (or (and (or (or (or (and (or (or (or (and (or (and (or (or (and .loc.5 (or (and (or (and .loc.6 (and (and (and (and (and (and (and (and (and (and (or hhv_ULTIMATE.start_ULTIMATE.startFINAL_37_Bool (= hhv_ULTIMATE.start_ULTIMATE.startFINAL_30_Int .x.619)) .def_95) .def_98) .def_101) .def_104) .def_107) .def_110) .def_113) .def_116) .def_119) .def_122)) (and (and (and (or hhv_ULTIMATE.start_ULTIMATE.startFINAL_37_Bool .def_132) (and (or hhv_ULTIMATE.start_ULTIMATE.startFINAL_37_Bool .def_135) (and .def_55 .x.629))) .def_140) .def_163)) (and (and (and (and .def_176 .loc.12) .def_180) .def_183) .def_186)) (and (and .def_163 (and .def_140 (and .def_55 (and .loc.11 (and .loc.10 (and .loc.9 (and hhv_ULTIMATE.start_ULTIMATE.startFINAL_37_Bool .x.629))))))) .def_196))) (and (or hhv_ULTIMATE.start_ULTIMATE.startFINAL_37_Bool (and (= .x.593 (store hhv_ULTIMATE.start_ULTIMATE.startFINAL_1_Array_Int_Int hhv_ULTIMATE.start_ULTIMATE.startFINAL_22_Int 0)) (= .x.622 0))) (and .def_54 (and .def_196 (and .def_140 (and .loc.11 (and .loc.10 (and .loc.9 (and .loc.6 (and .def_122 (and .def_119 (and .def_116 (and .def_113 (and .def_110 (and .def_107 (and .def_104 (and .def_101 (and .def_95 .def_98)))))))))))))))))) (and (or .x.629 .def_132) (and (or .x.629 (not .def_135)) (and .def_196 (and .def_163 (and .def_140 (and .def_55 (and .def_180 (and .loc.11 (and .loc.10 (and .loc.5 (and .def_122 .def_176)))))))))))) (and .loc.7 (and .def_239 .def_241))) (and (or hhv_ULTIMATE.start_ULTIMATE.startFINAL_37_Bool (and (and (= hhv_ULTIMATE.start_ULTIMATE.startFINAL_11_Int .x.618) .def_246) .def_248)) (and (or (or .x.629 (<= 10 .x.618)) (not (<= 0 .x.618))) (and .def_57 (and .def_54 (and .def_196 (and .def_140 (and .def_180 (and .loc.11 (and .loc.10 (and .loc.6 (and .def_122 (and .def_119 (and .def_116 (and .def_113 (and .def_175 (and .def_110 (and .def_107 (and .def_172 (and .def_167 (and .def_104 (and .def_101 (and .def_98 .def_257))))))))))))))))))))))) .def_282) (and (or hhv_ULTIMATE.start_ULTIMATE.startFINAL_37_Bool .def_284) (and .def_54 (and .def_196 (and .def_140 (and .def_55 (and .def_183 (and .loc.11 (and .loc.9 (and .loc.7 .def_300)))))))))) (and .def_57 (and .def_196 (and .def_140 (and .def_183 (and .loc.11 (and .loc.9 (and .loc.6 (and .loc.5 (and .def_122 (and .def_119 (and .def_282 (and .def_116 (and .def_113 .def_322)))))))))))))) (and (or hhv_ULTIMATE.start_ULTIMATE.startFINAL_37_Bool (= .x.626 (select (select hhv_ULTIMATE.start_ULTIMATE.startFINAL_3_Array_Int_Array_Int_Int hhv_ULTIMATE.start_ULTIMATE.startFINAL_29_Int) hhv_ULTIMATE.start_ULTIMATE.startFINAL_15_Int))) (and .def_57 (and .def_196 (and .def_140 (and .def_183 (and .def_180 (and .loc.11 (and .loc.6 (and .loc.5 .def_300)))))))))) .def_352) (and (or hhv_ULTIMATE.start_ULTIMATE.startFINAL_37_Bool (and (not .def_284) (= (+ hhv_ULTIMATE.start_ULTIMATE.startFINAL_26_Int (* (- 1) .x.618)) (- 1)))) (and .def_54 (and .def_196 (and .def_140 (and .def_55 (and .def_186 (and .loc.10 (and .loc.9 (and .loc.7 (and .def_122 (and .def_119 (and .def_116 (and .def_113 (and .def_175 (and .def_110 .def_293)))))))))))))))) (and .def_57 (and .def_196 (and .def_140 (and .def_55 (and .def_186 (and .def_180 (and .loc.10 (and .loc.5 (and .def_122 (and .def_119 (and .def_282 (and .def_116 (and .def_113 (and .def_322 .def_352))))))))))))))) (and (or hhv_ULTIMATE.start_ULTIMATE.startFINAL_37_Bool .def_393) (and .def_57 (and .def_196 (and .def_140 (and .def_55 (and .def_186 (and .def_180 (and .loc.10 .def_401))))))))) (and (and (and (and .def_412 .def_414) .def_417) .def_420) .def_423)) (and (or hhv_ULTIMATE.start_ULTIMATE.startFINAL_37_Bool (and (= .x.595 (store hhv_ULTIMATE.start_ULTIMATE.startFINAL_3_Array_Int_Array_Int_Int hhv_ULTIMATE.start_ULTIMATE.startFINAL_22_Int (store (store (select hhv_ULTIMATE.start_ULTIMATE.startFINAL_3_Array_Int_Array_Int_Int hhv_ULTIMATE.start_ULTIMATE.startFINAL_22_Int) (+ (* 8 hhv_ULTIMATE.start_ULTIMATE.startFINAL_23_Int) hhv_ULTIMATE.start_ULTIMATE.startFINAL_24_Int) hhv_ULTIMATE.start_ULTIMATE.startFINAL_14_Int) (+ (+ (* 8 hhv_ULTIMATE.start_ULTIMATE.startFINAL_23_Int) hhv_ULTIMATE.start_ULTIMATE.startFINAL_24_Int) 4) hhv_ULTIMATE.start_ULTIMATE.startFINAL_16_Int))) (and (<= hhv_ULTIMATE.start_ULTIMATE.startFINAL_16_Int 2147483647) (and (<= hhv_ULTIMATE.start_ULTIMATE.startFINAL_14_Int 2147483647) (and (<= (- 2147483648) hhv_ULTIMATE.start_ULTIMATE.startFINAL_14_Int) (and (<= (- 2147483648) hhv_ULTIMATE.start_ULTIMATE.startFINAL_16_Int) (not .def_393))))))) (and (or .x.629 (= (+ hhv_ULTIMATE.start_ULTIMATE.startFINAL_23_Int (* (- 1) .x.615)) (- 1))) (and .def_57 (and .def_196 (and .def_140 (and .def_55 (and .def_186 (and .def_183 (and .loc.9 .def_401)))))))))) (and (= hhv_ULTIMATE.start_ULTIMATE.startFINAL_35_Int .x.627) (and (= hhv_ULTIMATE.start_ULTIMATE.startFINAL_29_Int .x.621) (and (= hhv_ULTIMATE.start_ULTIMATE.startFINAL_19_Int .x.611) (and (= hhv_ULTIMATE.start_ULTIMATE.startFINAL_12_Int .x.604) (= hhv_ULTIMATE.start_ULTIMATE.startFINAL_15_Int .x.607)))))) (and (or hhv_ULTIMATE.start_ULTIMATE.startFINAL_37_Bool (and .def_248 (and .def_246 (= hhv_ULTIMATE.start_ULTIMATE.startFINAL_11_Int hbv_ULTIMATE.start_L30_33_Int)))) (and (or .x.629 (and (and (and (and (and (and (and (= .x.616 .x.604) (not (<= 10 hbv_ULTIMATE.start_L30_33_Int))) (= (+ (* 8 hbv_ULTIMATE.start_L30_33_Int) (+ .x.616 (* (- 1) .x.607))) 0)) (= .x.614 .x.611)) (= .x.595 (store hhv_ULTIMATE.start_ULTIMATE.startFINAL_3_Array_Int_Array_Int_Int .x.614 (store (select hhv_ULTIMATE.start_ULTIMATE.startFINAL_3_Array_Int_Array_Int_Int .x.614) (+ (* 8 hbv_ULTIMATE.start_L30_33_Int) .x.616) hbv_ULTIMATE.start_L30_33_Int)))) (= .x.614 .x.621)) (= (+ .x.618 (* (- 1) (select (select .x.595 .x.611) (+ (* 8 hbv_ULTIMATE.start_L30_33_Int) .x.604)))) 10)) (<= 0 hbv_ULTIMATE.start_L30_33_Int))) (and .def_57 (and .def_54 (and .def_196 (and .def_140 (and .def_186 (and .loc.10 (and .loc.9 (and .loc.6 (and .def_122 (and .def_119 (and .def_282 (and .def_116 (and .def_113 (and .def_352 (and .def_175 (and .def_110 (and .def_107 (and .def_172 (and .def_423 (and .def_167 (and .def_104 (and .def_101 (and .def_98 (and .def_420 (and .def_417 (and .def_257 .def_412))))))))))))))))))))))))))))) (and (= hhv_ULTIMATE.start_ULTIMATE.startFINAL_9_Int .x.601) (and (= hhv_ULTIMATE.start_ULTIMATE.startFINAL_5_Int .x.597) (= hhv_ULTIMATE.start_ULTIMATE.startFINAL_7_Array_Int_Int .x.599)))) (and (or hhv_ULTIMATE.start_ULTIMATE.startFINAL_37_Bool (and (and (= .x.597 0) (= .x.601 0)) (= hbv_ULTIMATE.start_L-1_1_Array_Int_Int (store hhv_ULTIMATE.start_ULTIMATE.startFINAL_1_Array_Int_Int 0 0)))) (and (or .x.629 (and (and (and (and (and (and (= .x.599 (store hhv_ULTIMATE.start_ULTIMATE.startFINAL_7_Array_Int_Int .x.614 160)) (= .x.616 0)) (= .x.593 (store hbv_ULTIMATE.start_L-1_1_Array_Int_Int .x.614 1))) (not (<= .x.592 .x.614))) (= .x.615 0)) (not (= .x.614 0))) (= (select hbv_ULTIMATE.start_L-1_1_Array_Int_Int .x.614) 0))) (and .def_57 (and .def_54 (and .def_196 (and .def_140 (and .def_55 (and .def_186 (and .def_183 (and .loc.9 (and .def_122 (and .def_119 (and .def_113 (and .def_110 (and .def_107 (and .def_104 (and .def_101 (and .def_98 (and .def_95 .def_414))))))))))))))))))))))))))))))))))))))))))))))))))))))))))))))))))) (state |.x.592| |.x.593| |.x.594| |.x.595| |.x.596| |.x.597| |.x.598| |.x.599| |.x.600| |.x.601| |.x.602| |.x.603| |.x.604| |.x.605| |.x.606| |.x.607| |.x.608| |.x.609| |.x.610| |.x.611| |.x.612| |.x.613| |.x.614| |.x.615| |.x.616| |.x.617| |.x.618| |.x.619| |.x.620| |.x.621| |.x.622| |.x.623| |.x.624| |.x.625| |.x.626| |.x.627| |.x.628| |.x.629| |.loc.9| |.loc.10| |.loc.11| |.loc.12| |.xtv.1| |.xtv.2|))))
(assert (forall ((|hhv_ULTIMATE.start_ULTIMATE.startFINAL_0_Int| Int) (|hhv_ULTIMATE.start_ULTIMATE.startFINAL_1_Array_Int_Int| (Array Int Int)) (|hhv_ULTIMATE.start_ULTIMATE.startFINAL_2_Array_Int_Int| (Array Int Int)) (|hhv_ULTIMATE.start_ULTIMATE.startFINAL_3_Array_Int_Array_Int_Int| (Array Int Int)) (|hhv_ULTIMATE.start_ULTIMATE.startFINAL_4_Array_Int_Array_Int_Int| (Array Int Int)) (|hhv_ULTIMATE.start_ULTIMATE.startFINAL_5_Int| Int) (|hhv_ULTIMATE.start_ULTIMATE.startFINAL_6_Int| Int) (|hhv_ULTIMATE.start_ULTIMATE.startFINAL_7_Array_Int_Int| (Array Int Int)) (|hhv_ULTIMATE.start_ULTIMATE.startFINAL_8_Array_Int_Int| (Array Int Int)) (|hhv_ULTIMATE.start_ULTIMATE.startFINAL_9_Int| Int) (|hhv_ULTIMATE.start_ULTIMATE.startFINAL_10_Int| Int) (|hhv_ULTIMATE.start_ULTIMATE.startFINAL_11_Int| Int) (|hhv_ULTIMATE.start_ULTIMATE.startFINAL_12_Int| Int) (|hhv_ULTIMATE.start_ULTIMATE.startFINAL_13_Int| Int) (|hhv_ULTIMATE.start_ULTIMATE.startFINAL_14_Int| Int) (|hhv_ULTIMATE.start_ULTIMATE.startFINAL_15_Int| Int) (|hhv_ULTIMATE.start_ULTIMATE.startFINAL_16_Int| Int) (|hhv_ULTIMATE.start_ULTIMATE.startFINAL_17_Int| Int) (|hhv_ULTIMATE.start_ULTIMATE.startFINAL_18_Int| Int) (|hhv_ULTIMATE.start_ULTIMATE.startFINAL_19_Int| Int) (|hhv_ULTIMATE.start_ULTIMATE.startFINAL_20_Int| Int) (|hhv_ULTIMATE.start_ULTIMATE.startFINAL_21_Int| Int) (|hhv_ULTIMATE.start_ULTIMATE.startFINAL_22_Int| Int) (|hhv_ULTIMATE.start_ULTIMATE.startFINAL_23_Int| Int) (|hhv_ULTIMATE.start_ULTIMATE.startFINAL_24_Int| Int) (|hhv_ULTIMATE.start_ULTIMATE.startFINAL_25_Int| Int) (|hhv_ULTIMATE.start_ULTIMATE.startFINAL_26_Int| Int) (|hbv_ULTIMATE.start_L38_27_Int| Int) (|hhv_ULTIMATE.start_ULTIMATE.startFINAL_28_Int| Int) (|hhv_ULTIMATE.start_ULTIMATE.startFINAL_29_Int| Int) (|hhv_ULTIMATE.start_ULTIMATE.startFINAL_30_Int| Int) (|hhv_ULTIMATE.start_ULTIMATE.startFINAL_31_Int| Int) (|hhv_ULTIMATE.start_ULTIMATE.startFINAL_32_Int| Int) (|hhv_ULTIMATE.start_ULTIMATE.startFINAL_33_Int| Int) (|hhv_ULTIMATE.start_ULTIMATE.startFINAL_34_Int| Int) (|hhv_ULTIMATE.start_ULTIMATE.startFINAL_35_Int| Int) (|hhv_ULTIMATE.start_ULTIMATE.startFINAL_36_Int| Int) (|hhv_ULTIMATE.start_ULTIMATE.startFINAL_37_Bool| Bool) (|.loc.5| Bool) (|.loc.6| Bool) (|.loc.7| Bool) (|.loc.8| Bool) (|hbv_ULTIMATE.start_L-1_1_Array_Int_Int| (Array Int Int)) (|hbv_ULTIMATE.start_L30_33_Int| Int) (|.x.602| Int) (|.x.600| (Array Int Int)) (|.x.598| Int) (|.x.596| (Array Int Int)) (|.x.592| Int) (|.x.594| (Array Int Int)) (|.x.619| Int) (|.x.605| Int) (|.x.610| Int) (|.x.612| Int) (|.x.613| Int) (|.x.617| Int) (|.x.620| Int) (|.x.624| Int) (|.x.625| Int) (|.x.628| Int) (|.x.629| Bool) (|.x.614| Int) (|.x.593| (Array Int Int)) (|.x.616| Int) (|.x.622| Int) (|.loc.12| Bool) (|.loc.9| Bool) (|.loc.10| Bool) (|.loc.11| Bool) (|.x.618| Int) (|.x.603| Int) (|.x.626| Int) (|.x.623| Int) (|.x.606| Int) (|.x.595| (Array Int Int)) (|.x.608| Int) (|.x.609| Int) (|.x.615| Int) (|.x.627| Int) (|.x.621| Int) (|.x.611| Int) (|.x.604| Int) (|.x.607| Int) (|.x.601| Int) (|.x.597| Int) (|.x.599| (Array Int Int)) (|.xtv.1| (Array Int Int)) (|.xtv.2| Int)) (=> (state |hhv_ULTIMATE.start_ULTIMATE.startFINAL_0_Int| |hhv_ULTIMATE.start_ULTIMATE.startFINAL_1_Array_Int_Int| |hhv_ULTIMATE.start_ULTIMATE.startFINAL_2_Array_Int_Int| |hhv_ULTIMATE.start_ULTIMATE.startFINAL_3_Array_Int_Array_Int_Int| |hhv_ULTIMATE.start_ULTIMATE.startFINAL_4_Array_Int_Array_Int_Int| |hhv_ULTIMATE.start_ULTIMATE.startFINAL_5_Int| |hhv_ULTIMATE.start_ULTIMATE.startFINAL_6_Int| |hhv_ULTIMATE.start_ULTIMATE.startFINAL_7_Array_Int_Int| |hhv_ULTIMATE.start_ULTIMATE.startFINAL_8_Array_Int_Int| |hhv_ULTIMATE.start_ULTIMATE.startFINAL_9_Int| |hhv_ULTIMATE.start_ULTIMATE.startFINAL_10_Int| |hhv_ULTIMATE.start_ULTIMATE.startFINAL_11_Int| |hhv_ULTIMATE.start_ULTIMATE.startFINAL_12_Int| |hhv_ULTIMATE.start_ULTIMATE.startFINAL_13_Int| |hhv_ULTIMATE.start_ULTIMATE.startFINAL_14_Int| |hhv_ULTIMATE.start_ULTIMATE.startFINAL_15_Int| |hhv_ULTIMATE.start_ULTIMATE.startFINAL_16_Int| |hhv_ULTIMATE.start_ULTIMATE.startFINAL_17_Int| |hhv_ULTIMATE.start_ULTIMATE.startFINAL_18_Int| |hhv_ULTIMATE.start_ULTIMATE.startFINAL_19_Int| |hhv_ULTIMATE.start_ULTIMATE.startFINAL_20_Int| |hhv_ULTIMATE.start_ULTIMATE.startFINAL_21_Int| |hhv_ULTIMATE.start_ULTIMATE.startFINAL_22_Int| |hhv_ULTIMATE.start_ULTIMATE.startFINAL_23_Int| |hhv_ULTIMATE.start_ULTIMATE.startFINAL_24_Int| |hhv_ULTIMATE.start_ULTIMATE.startFINAL_25_Int| |hhv_ULTIMATE.start_ULTIMATE.startFINAL_26_Int| |hbv_ULTIMATE.start_L38_27_Int| |hhv_ULTIMATE.start_ULTIMATE.startFINAL_28_Int| |hhv_ULTIMATE.start_ULTIMATE.startFINAL_29_Int| |hhv_ULTIMATE.start_ULTIMATE.startFINAL_30_Int| |hhv_ULTIMATE.start_ULTIMATE.startFINAL_31_Int| |hhv_ULTIMATE.start_ULTIMATE.startFINAL_32_Int| |hhv_ULTIMATE.start_ULTIMATE.startFINAL_33_Int| |hhv_ULTIMATE.start_ULTIMATE.startFINAL_34_Int| |hhv_ULTIMATE.start_ULTIMATE.startFINAL_35_Int| |hhv_ULTIMATE.start_ULTIMATE.startFINAL_36_Int| |hhv_ULTIMATE.start_ULTIMATE.startFINAL_37_Bool| |.loc.5| |.loc.6| |.loc.7| |.loc.8| |hbv_ULTIMATE.start_L-1_1_Array_Int_Int| |hbv_ULTIMATE.start_L30_33_Int|) (not (and hhv_ULTIMATE.start_ULTIMATE.startFINAL_37_Bool (and .loc.8 (and (and (not .loc.5) (not .loc.6)) (not .loc.7))))))))
(check-sat)
